Ex2/NFA/output/nfa_output_NFA-3-Slightly-More-Complex.cnf
p cnf 244 669
1 0
-1 2 0
-3 4 0
-5 6 0
-7 8 0
-6 9 0
-8 10 0
-2 11 0
-4 12 0
-11 13 0
-12 14 0
-9 15 0
-10 16 0
-15 17 0
-16 18 0
-13 19 0
-14 20 0
-19 21 0
-20 22 0
-17 23 0
-18 24 0
-23 25 0
-24 26 0
-21 27 0
-22 28 0
-27 29 0
-28 30 0
-25 31 0
-26 32 0
-31 33 0
-32 34 0
-29 35 0
-30 36 0
-35 37 0
-36 38 0
-33 39 0
-34 40 0
-38 41 0
-37 42 0
-40 43 0
-39 44 0
-42 45 0
-41 46 0
-44 47 0
-43 48 0
-46 49 0
-45 50 0
-48 51 0
-47 52 0
-51 53 0
-52 54 0
-49 55 0
-50 56 0
-54 57 0
-53 58 0
-56 59 0
-55 60 0
-58 61 0
-57 62 0
-60 63 0
-59 64 0
-63 65 0
-64 66 0
-61 67 0
-62 68 0
-66 69 0
-65 70 0
-68 71 0
-67 72 0
-70 73 0
-69 74 0
-72 75 0
-71 76 0
-74 77 0
-73 78 0
-76 79 0
-75 80 0
-78 81 0
-77 82 0
-80 83 0
-79 84 0
-82 85 0
-81 86 0
-84 87 0
-83 88 0
-87 89 0
-88 90 0
-85 91 0
-86 92 0
-90 93 0
-89 94 0
-92 95 0
-91 96 0
-95 97 0
-96 98 0
-93 99 0
-94 100 0
-98 101 0
-97 102 0
-100 103 0
-99 104 0
-103 105 0
-104 106 0
-101 107 0
-102 108 0
-106 109 0
-105 110 0
-108 111 0
-107 112 0
-111 113 0
-112 114 0
-109 115 0
-110 116 0
-114 117 0
-113 118 0
-116 119 0
-115 120 0
-118 121 0
-117 122 0
-120 123 0
-119 124 0
-123 125 0
-124 126 0
-121 127 0
-122 128 0
-126 129 0
-125 130 0
-128 131 0
-127 132 0
-131 133 0
-132 134 0
-129 135 0
-130 136 0
-134 137 0
-133 138 0
-136 139 0
-135 140 0
-139 141 0
-140 142 0
-137 143 0
-138 144 0
-142 145 0
-141 146 0
-144 147 0
-143 148 0
-147 149 0
-148 150 0
-145 151 0
-146 152 0
-150 153 0
-149 154 0
-152 155 0
-151 156 0
-154 157 0
-153 158 0
-156 159 0
-155 160 0
-158 161 0
-157 162 0
-160 163 0
-159 164 0
-163 165 0
-164 166 0
-161 167 0
-162 168 0
-166 169 0
-165 170 0
-168 171 0
-167 172 0
-171 173 0
-172 174 0
-169 175 0
-170 176 0
-174 177 0
-173 178 0
-176 179 0
-175 180 0
-179 181 0
-180 182 0
-177 183 0
-178 184 0
-182 185 0
-181 186 0
-184 187 0
-183 188 0
-187 189 0
-188 190 0
-185 191 0
-186 192 0
-190 193 0
-189 194 0
-192 195 0
-191 196 0
-194 197 0
-193 198 0
-196 199 0
-195 200 0
-199 201 0
-200 202 0
-197 203 0
-198 204 0
-202 205 0
-201 206 0
-204 207 0
-203 208 0
-207 209 0
-208 210 0
-205 211 0
-206 212 0
-210 213 0
-209 214 0
-212 215 0
-211 216 0
-215 217 0
-216 218 0
-213 219 0
-214 220 0
-218 221 0
-217 222 0
-220 223 0
-219 224 0
-223 225 0
-224 226 0
-221 227 0
-222 228 0
-226 229 0
-225 230 0
-228 231 0
-227 232 0
-231 233 0
-232 234 0
-229 235 0
-230 236 0
-234 237 0
-233 238 0
-236 239 0
-235 240 0
-238 241 0
-237 242 0
-240 243 0
-239 244 0
1 3 5 7 0
-1 -3 0
-1 -5 0
-1 -7 0
-3 -5 0
-3 -7 0
-5 -7 0
6 8 2 4 0
-6 -8 0
-6 -2 0
-6 -4 0
-8 -2 0
-8 -4 0
-2 -4 0
11 12 9 10 0
-11 -12 0
-11 -9 0
-11 -10 0
-12 -9 0
-12 -10 0
-9 -10 0
15 16 13 14 0
-15 -16 0
-15 -13 0
-15 -14 0
-16 -13 0
-16 -14 0
-13 -14 0
19 20 17 18 0
-19 -20 0
-19 -17 0
-19 -18 0
-20 -17 0
-20 -18 0
-17 -18 0
23 24 21 22 0
-23 -24 0
-23 -21 0
-23 -22 0
-24 -21 0
-24 -22 0
-21 -22 0
27 28 25 26 0
-27 -28 0
-27 -25 0
-27 -26 0
-28 -25 0
-28 -26 0
-25 -26 0
31 32 29 30 0
-31 -32 0
-31 -29 0
-31 -30 0
-32 -29 0
-32 -30 0
-29 -30 0
35 36 33 34 0
-35 -36 0
-35 -33 0
-35 -34 0
-36 -33 0
-36 -34 0
-33 -34 0
38 37 40 39 0
-38 -37 0
-38 -40 0
-38 -39 0
-37 -40 0
-37 -39 0
-40 -39 0
42 41 44 43 0
-42 -41 0
-42 -44 0
-42 -43 0
-41 -44 0
-41 -43 0
-44 -43 0
46 45 48 47 0
-46 -45 0
-46 -48 0
-46 -47 0
-45 -48 0
-45 -47 0
-48 -47 0
51 52 49 50 0
-51 -52 0
-51 -49 0
-51 -50 0
-52 -49 0
-52 -50 0
-49 -50 0
54 53 56 55 0
-54 -53 0
-54 -56 0
-54 -55 0
-53 -56 0
-53 -55 0
-56 -55 0
58 57 60 59 0
-58 -57 0
-58 -60 0
-58 -59 0
-57 -60 0
-57 -59 0
-60 -59 0
63 64 61 62 0
-63 -64 0
-63 -61 0
-63 -62 0
-64 -61 0
-64 -62 0
-61 -62 0
66 65 68 67 0
-66 -65 0
-66 -68 0
-66 -67 0
-65 -68 0
-65 -67 0
-68 -67 0
70 69 72 71 0
-70 -69 0
-70 -72 0
-70 -71 0
-69 -72 0
-69 -71 0
-72 -71 0
74 73 76 75 0
-74 -73 0
-74 -76 0
-74 -75 0
-73 -76 0
-73 -75 0
-76 -75 0
78 77 80 79 0
-78 -77 0
-78 -80 0
-78 -79 0
-77 -80 0
-77 -79 0
-80 -79 0
82 81 84 83 0
-82 -81 0
-82 -84 0
-82 -83 0
-81 -84 0
-81 -83 0
-84 -83 0
87 88 85 86 0
-87 -88 0
-87 -85 0
-87 -86 0
-88 -85 0
-88 -86 0
-85 -86 0
90 89 92 91 0
-90 -89 0
-90 -92 0
-90 -91 0
-89 -92 0
-89 -91 0
-92 -91 0
95 96 93 94 0
-95 -96 0
-95 -93 0
-95 -94 0
-96 -93 0
-96 -94 0
-93 -94 0
98 97 100 99 0
-98 -97 0
-98 -100 0
-98 -99 0
-97 -100 0
-97 -99 0
-100 -99 0
103 104 101 102 0
-103 -104 0
-103 -101 0
-103 -102 0
-104 -101 0
-104 -102 0
-101 -102 0
106 105 108 107 0
-106 -105 0
-106 -108 0
-106 -107 0
-105 -108 0
-105 -107 0
-108 -107 0
111 112 109 110 0
-111 -112 0
-111 -109 0
-111 -110 0
-112 -109 0
-112 -110 0
-109 -110 0
114 113 116 115 0
-114 -113 0
-114 -116 0
-114 -115 0
-113 -116 0
-113 -115 0
-116 -115 0
118 117 120 119 0
-118 -117 0
-118 -120 0
-118 -119 0
-117 -120 0
-117 -119 0
-120 -119 0
123 124 121 122 0
-123 -124 0
-123 -121 0
-123 -122 0
-124 -121 0
-124 -122 0
-121 -122 0
126 125 128 127 0
-126 -125 0
-126 -128 0
-126 -127 0
-125 -128 0
-125 -127 0
-128 -127 0
131 132 129 130 0
-131 -132 0
-131 -129 0
-131 -130 0
-132 -129 0
-132 -130 0
-129 -130 0
134 133 136 135 0
-134 -133 0
-134 -136 0
-134 -135 0
-133 -136 0
-133 -135 0
-136 -135 0
139 140 137 138 0
-139 -140 0
-139 -137 0
-139 -138 0
-140 -137 0
-140 -138 0
-137 -138 0
142 141 144 143 0
-142 -141 0
-142 -144 0
-142 -143 0
-141 -144 0
-141 -143 0
-144 -143 0
147 148 145 146 0
-147 -148 0
-147 -145 0
-147 -146 0
-148 -145 0
-148 -146 0
-145 -146 0
150 149 152 151 0
-150 -149 0
-150 -152 0
-150 -151 0
-149 -152 0
-149 -151 0
-152 -151 0
154 153 156 155 0
-154 -153 0
-154 -156 0
-154 -155 0
-153 -156 0
-153 -155 0
-156 -155 0
158 157 160 159 0
-158 -157 0
-158 -160 0
-158 -159 0
-157 -160 0
-157 -159 0
-160 -159 0
163 164 161 162 0
-163 -164 0
-163 -161 0
-163 -162 0
-164 -161 0
-164 -162 0
-161 -162 0
166 165 168 167 0
-166 -165 0
-166 -168 0
-166 -167 0
-165 -168 0
-165 -167 0
-168 -167 0
171 172 169 170 0
-171 -172 0
-171 -169 0
-171 -170 0
-172 -169 0
-172 -170 0
-169 -170 0
174 173 176 175 0
-174 -173 0
-174 -176 0
-174 -175 0
-173 -176 0
-173 -175 0
-176 -175 0
179 180 177 178 0
-179 -180 0
-179 -177 0
-179 -178 0
-180 -177 0
-180 -178 0
-177 -178 0
182 181 184 183 0
-182 -181 0
-182 -184 0
-182 -183 0
-181 -184 0
-181 -183 0
-184 -183 0
187 188 185 186 0
-187 -188 0
-187 -185 0
-187 -186 0
-188 -185 0
-188 -186 0
-185 -186 0
190 189 192 191 0
-190 -189 0
-190 -192 0
-190 -191 0
-189 -192 0
-189 -191 0
-192 -191 0
194 193 196 195 0
-194 -193 0
-194 -196 0
-194 -195 0
-193 -196 0
-193 -195 0
-196 -195 0
199 200 197 198 0
-199 -200 0
-199 -197 0
-199 -198 0
-200 -197 0
-200 -198 0
-197 -198 0
202 201 204 203 0
-202 -201 0
-202 -204 0
-202 -203 0
-201 -204 0
-201 -203 0
-204 -203 0
207 208 205 206 0
-207 -208 0
-207 -205 0
-207 -206 0
-208 -205 0
-208 -206 0
-205 -206 0
210 209 212 211 0
-210 -209 0
-210 -212 0
-210 -211 0
-209 -212 0
-209 -211 0
-212 -211 0
215 216 213 214 0
-215 -216 0
-215 -213 0
-215 -214 0
-216 -213 0
-216 -214 0
-213 -214 0
218 217 220 219 0
-218 -217 0
-218 -220 0
-218 -219 0
-217 -220 0
-217 -219 0
-220 -219 0
223 224 221 222 0
-223 -224 0
-223 -221 0
-223 -222 0
-224 -221 0
-224 -222 0
-221 -222 0
226 225 228 227 0
-226 -225 0
-226 -228 0
-226 -227 0
-225 -228 0
-225 -227 0
-228 -227 0
231 232 229 230 0
-231 -232 0
-231 -229 0
-231 -230 0
-232 -229 0
-232 -230 0
-229 -230 0
234 233 236 235 0
-234 -233 0
-234 -236 0
-234 -235 0
-233 -236 0
-233 -235 0
-236 -235 0
238 237 240 239 0
-238 -237 0
-238 -240 0
-238 -239 0
-237 -240 0
-237 -239 0
-240 -239 0
243 244 241 242 0
-243 -244 0
-243 -241 0
-243 -242 0
-244 -241 0
-244 -242 0
-241 -242 0
243 0
