Ex2/NFA/output/nfa_output_NFA-3-Slightly-More-Complex.txt
(even-even_0) ∧
(-even-even_0 ∨ odd-even_1) ∧
(-even-odd_0 ∨ odd-odd_1) ∧
(-odd-even_0 ∨ even-even_1) ∧
(-odd-odd_0 ∨ even-odd_1) ∧
(-even-even_1 ∨ odd-even_2) ∧
(-even-odd_1 ∨ odd-odd_2) ∧
(-odd-even_1 ∨ even-even_2) ∧
(-odd-odd_1 ∨ even-odd_2) ∧
(-even-even_2 ∨ odd-even_3) ∧
(-even-odd_2 ∨ odd-odd_3) ∧
(-odd-even_2 ∨ even-even_3) ∧
(-odd-odd_2 ∨ even-odd_3) ∧
(-even-even_3 ∨ odd-even_4) ∧
(-even-odd_3 ∨ odd-odd_4) ∧
(-odd-even_3 ∨ even-even_4) ∧
(-odd-odd_3 ∨ even-odd_4) ∧
(-even-even_4 ∨ odd-even_5) ∧
(-even-odd_4 ∨ odd-odd_5) ∧
(-odd-even_4 ∨ even-even_5) ∧
(-odd-odd_4 ∨ even-odd_5) ∧
(-even-even_5 ∨ odd-even_6) ∧
(-even-odd_5 ∨ odd-odd_6) ∧
(-odd-even_5 ∨ even-even_6) ∧
(-odd-odd_5 ∨ even-odd_6) ∧
(-even-even_6 ∨ odd-even_7) ∧
(-even-odd_6 ∨ odd-odd_7) ∧
(-odd-even_6 ∨ even-even_7) ∧
(-odd-odd_6 ∨ even-odd_7) ∧
(-even-even_7 ∨ odd-even_8) ∧
(-even-odd_7 ∨ odd-odd_8) ∧
(-odd-even_7 ∨ even-even_8) ∧
(-odd-odd_7 ∨ even-odd_8) ∧
(-even-even_8 ∨ even-odd_9) ∧
(-even-odd_8 ∨ even-even_9) ∧
(-odd-even_8 ∨ odd-odd_9) ∧
(-odd-odd_8 ∨ odd-even_9) ∧
(-even-even_9 ∨ even-odd_10) ∧
(-even-odd_9 ∨ even-even_10) ∧
(-odd-even_9 ∨ odd-odd_10) ∧
(-odd-odd_9 ∨ odd-even_10) ∧
(-even-even_10 ∨ even-odd_11) ∧
(-even-odd_10 ∨ even-even_11) ∧
(-odd-even_10 ∨ odd-odd_11) ∧
(-odd-odd_10 ∨ odd-even_11) ∧
(-even-even_11 ∨ odd-even_12) ∧
(-even-odd_11 ∨ odd-odd_12) ∧
(-odd-even_11 ∨ even-even_12) ∧
(-odd-odd_11 ∨ even-odd_12) ∧
(-even-even_12 ∨ even-odd_13) ∧
(-even-odd_12 ∨ even-even_13) ∧
(-odd-even_12 ∨ odd-odd_13) ∧
(-odd-odd_12 ∨ odd-even_13) ∧
(-even-even_13 ∨ even-odd_14) ∧
(-even-odd_13 ∨ even-even_14) ∧
(-odd-even_13 ∨ odd-odd_14) ∧
(-odd-odd_13 ∨ odd-even_14) ∧
(-even-even_14 ∨ odd-even_15) ∧
(-even-odd_14 ∨ odd-odd_15) ∧
(-odd-even_14 ∨ even-even_15) ∧
(-odd-odd_14 ∨ even-odd_15) ∧
(-even-even_15 ∨ even-odd_16) ∧
(-even-odd_15 ∨ even-even_16) ∧
(-odd-even_15 ∨ odd-odd_16) ∧
(-odd-odd_15 ∨ odd-even_16) ∧
(-even-even_16 ∨ even-odd_17) ∧
(-even-odd_16 ∨ even-even_17) ∧
(-odd-even_16 ∨ odd-odd_17) ∧
(-odd-odd_16 ∨ odd-even_17) ∧
(-even-even_17 ∨ even-odd_18) ∧
(-even-odd_17 ∨ even-even_18) ∧
(-odd-even_17 ∨ odd-odd_18) ∧
(-odd-odd_17 ∨ odd-even_18) ∧
(-even-even_18 ∨ even-odd_19) ∧
(-even-odd_18 ∨ even-even_19) ∧
(-odd-even_18 ∨ odd-odd_19) ∧
(-odd-odd_18 ∨ odd-even_19) ∧
(-even-even_19 ∨ even-odd_20) ∧
(-even-odd_19 ∨ even-even_20) ∧
(-odd-even_19 ∨ odd-odd_20) ∧
(-odd-odd_19 ∨ odd-even_20) ∧
(-even-even_20 ∨ odd-even_21) ∧
(-even-odd_20 ∨ odd-odd_21) ∧
(-odd-even_20 ∨ even-even_21) ∧
(-odd-odd_20 ∨ even-odd_21) ∧
(-even-even_21 ∨ even-odd_22) ∧
(-even-odd_21 ∨ even-even_22) ∧
(-odd-even_21 ∨ odd-odd_22) ∧
(-odd-odd_21 ∨ odd-even_22) ∧
(-even-even_22 ∨ odd-even_23) ∧
(-even-odd_22 ∨ odd-odd_23) ∧
(-odd-even_22 ∨ even-even_23) ∧
(-odd-odd_22 ∨ even-odd_23) ∧
(-even-even_23 ∨ even-odd_24) ∧
(-even-odd_23 ∨ even-even_24) ∧
(-odd-even_23 ∨ odd-odd_24) ∧
(-odd-odd_23 ∨ odd-even_24) ∧
(-even-even_24 ∨ odd-even_25) ∧
(-even-odd_24 ∨ odd-odd_25) ∧
(-odd-even_24 ∨ even-even_25) ∧
(-odd-odd_24 ∨ even-odd_25) ∧
(-even-even_25 ∨ even-odd_26) ∧
(-even-odd_25 ∨ even-even_26) ∧
(-odd-even_25 ∨ odd-odd_26) ∧
(-odd-odd_25 ∨ odd-even_26) ∧
(-even-even_26 ∨ odd-even_27) ∧
(-even-odd_26 ∨ odd-odd_27) ∧
(-odd-even_26 ∨ even-even_27) ∧
(-odd-odd_26 ∨ even-odd_27) ∧
(-even-even_27 ∨ even-odd_28) ∧
(-even-odd_27 ∨ even-even_28) ∧
(-odd-even_27 ∨ odd-odd_28) ∧
(-odd-odd_27 ∨ odd-even_28) ∧
(-even-even_28 ∨ even-odd_29) ∧
(-even-odd_28 ∨ even-even_29) ∧
(-odd-even_28 ∨ odd-odd_29) ∧
(-odd-odd_28 ∨ odd-even_29) ∧
(-even-even_29 ∨ odd-even_30) ∧
(-even-odd_29 ∨ odd-odd_30) ∧
(-odd-even_29 ∨ even-even_30) ∧
(-odd-odd_29 ∨ even-odd_30) ∧
(-even-even_30 ∨ even-odd_31) ∧
(-even-odd_30 ∨ even-even_31) ∧
(-odd-even_30 ∨ odd-odd_31) ∧
(-odd-odd_30 ∨ odd-even_31) ∧
(-even-even_31 ∨ odd-even_32) ∧
(-even-odd_31 ∨ odd-odd_32) ∧
(-odd-even_31 ∨ even-even_32) ∧
(-odd-odd_31 ∨ even-odd_32) ∧
(-even-even_32 ∨ even-odd_33) ∧
(-even-odd_32 ∨ even-even_33) ∧
(-odd-even_32 ∨ odd-odd_33) ∧
(-odd-odd_32 ∨ odd-even_33) ∧
(-even-even_33 ∨ odd-even_34) ∧
(-even-odd_33 ∨ odd-odd_34) ∧
(-odd-even_33 ∨ even-even_34) ∧
(-odd-odd_33 ∨ even-odd_34) ∧
(-even-even_34 ∨ even-odd_35) ∧
(-even-odd_34 ∨ even-even_35) ∧
(-odd-even_34 ∨ odd-odd_35) ∧
(-odd-odd_34 ∨ odd-even_35) ∧
(-even-even_35 ∨ odd-even_36) ∧
(-even-odd_35 ∨ odd-odd_36) ∧
(-odd-even_35 ∨ even-even_36) ∧
(-odd-odd_35 ∨ even-odd_36) ∧
(-even-even_36 ∨ even-odd_37) ∧
(-even-odd_36 ∨ even-even_37) ∧
(-odd-even_36 ∨ odd-odd_37) ∧
(-odd-odd_36 ∨ odd-even_37) ∧
(-even-even_37 ∨ even-odd_38) ∧
(-even-odd_37 ∨ even-even_38) ∧
(-odd-even_37 ∨ odd-odd_38) ∧
(-odd-odd_37 ∨ odd-even_38) ∧
(-even-even_38 ∨ even-odd_39) ∧
(-even-odd_38 ∨ even-even_39) ∧
(-odd-even_38 ∨ odd-odd_39) ∧
(-odd-odd_38 ∨ odd-even_39) ∧
(-even-even_39 ∨ odd-even_40) ∧
(-even-odd_39 ∨ odd-odd_40) ∧
(-odd-even_39 ∨ even-even_40) ∧
(-odd-odd_39 ∨ even-odd_40) ∧
(-even-even_40 ∨ even-odd_41) ∧
(-even-odd_40 ∨ even-even_41) ∧
(-odd-even_40 ∨ odd-odd_41) ∧
(-odd-odd_40 ∨ odd-even_41) ∧
(-even-even_41 ∨ odd-even_42) ∧
(-even-odd_41 ∨ odd-odd_42) ∧
(-odd-even_41 ∨ even-even_42) ∧
(-odd-odd_41 ∨ even-odd_42) ∧
(-even-even_42 ∨ even-odd_43) ∧
(-even-odd_42 ∨ even-even_43) ∧
(-odd-even_42 ∨ odd-odd_43) ∧
(-odd-odd_42 ∨ odd-even_43) ∧
(-even-even_43 ∨ odd-even_44) ∧
(-even-odd_43 ∨ odd-odd_44) ∧
(-odd-even_43 ∨ even-even_44) ∧
(-odd-odd_43 ∨ even-odd_44) ∧
(-even-even_44 ∨ even-odd_45) ∧
(-even-odd_44 ∨ even-even_45) ∧
(-odd-even_44 ∨ odd-odd_45) ∧
(-odd-odd_44 ∨ odd-even_45) ∧
(-even-even_45 ∨ odd-even_46) ∧
(-even-odd_45 ∨ odd-odd_46) ∧
(-odd-even_45 ∨ even-even_46) ∧
(-odd-odd_45 ∨ even-odd_46) ∧
(-even-even_46 ∨ even-odd_47) ∧
(-even-odd_46 ∨ even-even_47) ∧
(-odd-even_46 ∨ odd-odd_47) ∧
(-odd-odd_46 ∨ odd-even_47) ∧
(-even-even_47 ∨ even-odd_48) ∧
(-even-odd_47 ∨ even-even_48) ∧
(-odd-even_47 ∨ odd-odd_48) ∧
(-odd-odd_47 ∨ odd-even_48) ∧
(-even-even_48 ∨ odd-even_49) ∧
(-even-odd_48 ∨ odd-odd_49) ∧
(-odd-even_48 ∨ even-even_49) ∧
(-odd-odd_48 ∨ even-odd_49) ∧
(-even-even_49 ∨ even-odd_50) ∧
(-even-odd_49 ∨ even-even_50) ∧
(-odd-even_49 ∨ odd-odd_50) ∧
(-odd-odd_49 ∨ odd-even_50) ∧
(-even-even_50 ∨ odd-even_51) ∧
(-even-odd_50 ∨ odd-odd_51) ∧
(-odd-even_50 ∨ even-even_51) ∧
(-odd-odd_50 ∨ even-odd_51) ∧
(-even-even_51 ∨ even-odd_52) ∧
(-even-odd_51 ∨ even-even_52) ∧
(-odd-even_51 ∨ odd-odd_52) ∧
(-odd-odd_51 ∨ odd-even_52) ∧
(-even-even_52 ∨ odd-even_53) ∧
(-even-odd_52 ∨ odd-odd_53) ∧
(-odd-even_52 ∨ even-even_53) ∧
(-odd-odd_52 ∨ even-odd_53) ∧
(-even-even_53 ∨ even-odd_54) ∧
(-even-odd_53 ∨ even-even_54) ∧
(-odd-even_53 ∨ odd-odd_54) ∧
(-odd-odd_53 ∨ odd-even_54) ∧
(-even-even_54 ∨ odd-even_55) ∧
(-even-odd_54 ∨ odd-odd_55) ∧
(-odd-even_54 ∨ even-even_55) ∧
(-odd-odd_54 ∨ even-odd_55) ∧
(-even-even_55 ∨ even-odd_56) ∧
(-even-odd_55 ∨ even-even_56) ∧
(-odd-even_55 ∨ odd-odd_56) ∧
(-odd-odd_55 ∨ odd-even_56) ∧
(-even-even_56 ∨ odd-even_57) ∧
(-even-odd_56 ∨ odd-odd_57) ∧
(-odd-even_56 ∨ even-even_57) ∧
(-odd-odd_56 ∨ even-odd_57) ∧
(-even-even_57 ∨ even-odd_58) ∧
(-even-odd_57 ∨ even-even_58) ∧
(-odd-even_57 ∨ odd-odd_58) ∧
(-odd-odd_57 ∨ odd-even_58) ∧
(-even-even_58 ∨ even-odd_59) ∧
(-even-odd_58 ∨ even-even_59) ∧
(-odd-even_58 ∨ odd-odd_59) ∧
(-odd-odd_58 ∨ odd-even_59) ∧
(-even-even_59 ∨ odd-even_60) ∧
(-even-odd_59 ∨ odd-odd_60) ∧
(-odd-even_59 ∨ even-even_60) ∧
(-odd-odd_59 ∨ even-odd_60) ∧
(even-even_0 ∨ even-odd_0 ∨ odd-even_0 ∨ odd-odd_0) ∧
(-even-even_0 ∨ -even-odd_0) ∧
(-even-even_0 ∨ -odd-even_0) ∧
(-even-even_0 ∨ -odd-odd_0) ∧
(-even-odd_0 ∨ -odd-even_0) ∧
(-even-odd_0 ∨ -odd-odd_0) ∧
(-odd-even_0 ∨ -odd-odd_0) ∧
(even-even_1 ∨ even-odd_1 ∨ odd-even_1 ∨ odd-odd_1) ∧
(-even-even_1 ∨ -even-odd_1) ∧
(-even-even_1 ∨ -odd-even_1) ∧
(-even-even_1 ∨ -odd-odd_1) ∧
(-even-odd_1 ∨ -odd-even_1) ∧
(-even-odd_1 ∨ -odd-odd_1) ∧
(-odd-even_1 ∨ -odd-odd_1) ∧
(even-even_2 ∨ even-odd_2 ∨ odd-even_2 ∨ odd-odd_2) ∧
(-even-even_2 ∨ -even-odd_2) ∧
(-even-even_2 ∨ -odd-even_2) ∧
(-even-even_2 ∨ -odd-odd_2) ∧
(-even-odd_2 ∨ -odd-even_2) ∧
(-even-odd_2 ∨ -odd-odd_2) ∧
(-odd-even_2 ∨ -odd-odd_2) ∧
(even-even_3 ∨ even-odd_3 ∨ odd-even_3 ∨ odd-odd_3) ∧
(-even-even_3 ∨ -even-odd_3) ∧
(-even-even_3 ∨ -odd-even_3) ∧
(-even-even_3 ∨ -odd-odd_3) ∧
(-even-odd_3 ∨ -odd-even_3) ∧
(-even-odd_3 ∨ -odd-odd_3) ∧
(-odd-even_3 ∨ -odd-odd_3) ∧
(even-even_4 ∨ even-odd_4 ∨ odd-even_4 ∨ odd-odd_4) ∧
(-even-even_4 ∨ -even-odd_4) ∧
(-even-even_4 ∨ -odd-even_4) ∧
(-even-even_4 ∨ -odd-odd_4) ∧
(-even-odd_4 ∨ -odd-even_4) ∧
(-even-odd_4 ∨ -odd-odd_4) ∧
(-odd-even_4 ∨ -odd-odd_4) ∧
(even-even_5 ∨ even-odd_5 ∨ odd-even_5 ∨ odd-odd_5) ∧
(-even-even_5 ∨ -even-odd_5) ∧
(-even-even_5 ∨ -odd-even_5) ∧
(-even-even_5 ∨ -odd-odd_5) ∧
(-even-odd_5 ∨ -odd-even_5) ∧
(-even-odd_5 ∨ -odd-odd_5) ∧
(-odd-even_5 ∨ -odd-odd_5) ∧
(even-even_6 ∨ even-odd_6 ∨ odd-even_6 ∨ odd-odd_6) ∧
(-even-even_6 ∨ -even-odd_6) ∧
(-even-even_6 ∨ -odd-even_6) ∧
(-even-even_6 ∨ -odd-odd_6) ∧
(-even-odd_6 ∨ -odd-even_6) ∧
(-even-odd_6 ∨ -odd-odd_6) ∧
(-odd-even_6 ∨ -odd-odd_6) ∧
(even-even_7 ∨ even-odd_7 ∨ odd-even_7 ∨ odd-odd_7) ∧
(-even-even_7 ∨ -even-odd_7) ∧
(-even-even_7 ∨ -odd-even_7) ∧
(-even-even_7 ∨ -odd-odd_7) ∧
(-even-odd_7 ∨ -odd-even_7) ∧
(-even-odd_7 ∨ -odd-odd_7) ∧
(-odd-even_7 ∨ -odd-odd_7) ∧
(even-even_8 ∨ even-odd_8 ∨ odd-even_8 ∨ odd-odd_8) ∧
(-even-even_8 ∨ -even-odd_8) ∧
(-even-even_8 ∨ -odd-even_8) ∧
(-even-even_8 ∨ -odd-odd_8) ∧
(-even-odd_8 ∨ -odd-even_8) ∧
(-even-odd_8 ∨ -odd-odd_8) ∧
(-odd-even_8 ∨ -odd-odd_8) ∧
(even-even_9 ∨ even-odd_9 ∨ odd-even_9 ∨ odd-odd_9) ∧
(-even-even_9 ∨ -even-odd_9) ∧
(-even-even_9 ∨ -odd-even_9) ∧
(-even-even_9 ∨ -odd-odd_9) ∧
(-even-odd_9 ∨ -odd-even_9) ∧
(-even-odd_9 ∨ -odd-odd_9) ∧
(-odd-even_9 ∨ -odd-odd_9) ∧
(even-even_10 ∨ even-odd_10 ∨ odd-even_10 ∨ odd-odd_10) ∧
(-even-even_10 ∨ -even-odd_10) ∧
(-even-even_10 ∨ -odd-even_10) ∧
(-even-even_10 ∨ -odd-odd_10) ∧
(-even-odd_10 ∨ -odd-even_10) ∧
(-even-odd_10 ∨ -odd-odd_10) ∧
(-odd-even_10 ∨ -odd-odd_10) ∧
(even-even_11 ∨ even-odd_11 ∨ odd-even_11 ∨ odd-odd_11) ∧
(-even-even_11 ∨ -even-odd_11) ∧
(-even-even_11 ∨ -odd-even_11) ∧
(-even-even_11 ∨ -odd-odd_11) ∧
(-even-odd_11 ∨ -odd-even_11) ∧
(-even-odd_11 ∨ -odd-odd_11) ∧
(-odd-even_11 ∨ -odd-odd_11) ∧
(even-even_12 ∨ even-odd_12 ∨ odd-even_12 ∨ odd-odd_12) ∧
(-even-even_12 ∨ -even-odd_12) ∧
(-even-even_12 ∨ -odd-even_12) ∧
(-even-even_12 ∨ -odd-odd_12) ∧
(-even-odd_12 ∨ -odd-even_12) ∧
(-even-odd_12 ∨ -odd-odd_12) ∧
(-odd-even_12 ∨ -odd-odd_12) ∧
(even-even_13 ∨ even-odd_13 ∨ odd-even_13 ∨ odd-odd_13) ∧
(-even-even_13 ∨ -even-odd_13) ∧
(-even-even_13 ∨ -odd-even_13) ∧
(-even-even_13 ∨ -odd-odd_13) ∧
(-even-odd_13 ∨ -odd-even_13) ∧
(-even-odd_13 ∨ -odd-odd_13) ∧
(-odd-even_13 ∨ -odd-odd_13) ∧
(even-even_14 ∨ even-odd_14 ∨ odd-even_14 ∨ odd-odd_14) ∧
(-even-even_14 ∨ -even-odd_14) ∧
(-even-even_14 ∨ -odd-even_14) ∧
(-even-even_14 ∨ -odd-odd_14) ∧
(-even-odd_14 ∨ -odd-even_14) ∧
(-even-odd_14 ∨ -odd-odd_14) ∧
(-odd-even_14 ∨ -odd-odd_14) ∧
(even-even_15 ∨ even-odd_15 ∨ odd-even_15 ∨ odd-odd_15) ∧
(-even-even_15 ∨ -even-odd_15) ∧
(-even-even_15 ∨ -odd-even_15) ∧
(-even-even_15 ∨ -odd-odd_15) ∧
(-even-odd_15 ∨ -odd-even_15) ∧
(-even-odd_15 ∨ -odd-odd_15) ∧
(-odd-even_15 ∨ -odd-odd_15) ∧
(even-even_16 ∨ even-odd_16 ∨ odd-even_16 ∨ odd-odd_16) ∧
(-even-even_16 ∨ -even-odd_16) ∧
(-even-even_16 ∨ -odd-even_16) ∧
(-even-even_16 ∨ -odd-odd_16) ∧
(-even-odd_16 ∨ -odd-even_16) ∧
(-even-odd_16 ∨ -odd-odd_16) ∧
(-odd-even_16 ∨ -odd-odd_16) ∧
(even-even_17 ∨ even-odd_17 ∨ odd-even_17 ∨ odd-odd_17) ∧
(-even-even_17 ∨ -even-odd_17) ∧
(-even-even_17 ∨ -odd-even_17) ∧
(-even-even_17 ∨ -odd-odd_17) ∧
(-even-odd_17 ∨ -odd-even_17) ∧
(-even-odd_17 ∨ -odd-odd_17) ∧
(-odd-even_17 ∨ -odd-odd_17) ∧
(even-even_18 ∨ even-odd_18 ∨ odd-even_18 ∨ odd-odd_18) ∧
(-even-even_18 ∨ -even-odd_18) ∧
(-even-even_18 ∨ -odd-even_18) ∧
(-even-even_18 ∨ -odd-odd_18) ∧
(-even-odd_18 ∨ -odd-even_18) ∧
(-even-odd_18 ∨ -odd-odd_18) ∧
(-odd-even_18 ∨ -odd-odd_18) ∧
(even-even_19 ∨ even-odd_19 ∨ odd-even_19 ∨ odd-odd_19) ∧
(-even-even_19 ∨ -even-odd_19) ∧
(-even-even_19 ∨ -odd-even_19) ∧
(-even-even_19 ∨ -odd-odd_19) ∧
(-even-odd_19 ∨ -odd-even_19) ∧
(-even-odd_19 ∨ -odd-odd_19) ∧
(-odd-even_19 ∨ -odd-odd_19) ∧
(even-even_20 ∨ even-odd_20 ∨ odd-even_20 ∨ odd-odd_20) ∧
(-even-even_20 ∨ -even-odd_20) ∧
(-even-even_20 ∨ -odd-even_20) ∧
(-even-even_20 ∨ -odd-odd_20) ∧
(-even-odd_20 ∨ -odd-even_20) ∧
(-even-odd_20 ∨ -odd-odd_20) ∧
(-odd-even_20 ∨ -odd-odd_20) ∧
(even-even_21 ∨ even-odd_21 ∨ odd-even_21 ∨ odd-odd_21) ∧
(-even-even_21 ∨ -even-odd_21) ∧
(-even-even_21 ∨ -odd-even_21) ∧
(-even-even_21 ∨ -odd-odd_21) ∧
(-even-odd_21 ∨ -odd-even_21) ∧
(-even-odd_21 ∨ -odd-odd_21) ∧
(-odd-even_21 ∨ -odd-odd_21) ∧
(even-even_22 ∨ even-odd_22 ∨ odd-even_22 ∨ odd-odd_22) ∧
(-even-even_22 ∨ -even-odd_22) ∧
(-even-even_22 ∨ -odd-even_22) ∧
(-even-even_22 ∨ -odd-odd_22) ∧
(-even-odd_22 ∨ -odd-even_22) ∧
(-even-odd_22 ∨ -odd-odd_22) ∧
(-odd-even_22 ∨ -odd-odd_22) ∧
(even-even_23 ∨ even-odd_23 ∨ odd-even_23 ∨ odd-odd_23) ∧
(-even-even_23 ∨ -even-odd_23) ∧
(-even-even_23 ∨ -odd-even_23) ∧
(-even-even_23 ∨ -odd-odd_23) ∧
(-even-odd_23 ∨ -odd-even_23) ∧
(-even-odd_23 ∨ -odd-odd_23) ∧
(-odd-even_23 ∨ -odd-odd_23) ∧
(even-even_24 ∨ even-odd_24 ∨ odd-even_24 ∨ odd-odd_24) ∧
(-even-even_24 ∨ -even-odd_24) ∧
(-even-even_24 ∨ -odd-even_24) ∧
(-even-even_24 ∨ -odd-odd_24) ∧
(-even-odd_24 ∨ -odd-even_24) ∧
(-even-odd_24 ∨ -odd-odd_24) ∧
(-odd-even_24 ∨ -odd-odd_24) ∧
(even-even_25 ∨ even-odd_25 ∨ odd-even_25 ∨ odd-odd_25) ∧
(-even-even_25 ∨ -even-odd_25) ∧
(-even-even_25 ∨ -odd-even_25) ∧
(-even-even_25 ∨ -odd-odd_25) ∧
(-even-odd_25 ∨ -odd-even_25) ∧
(-even-odd_25 ∨ -odd-odd_25) ∧
(-odd-even_25 ∨ -odd-odd_25) ∧
(even-even_26 ∨ even-odd_26 ∨ odd-even_26 ∨ odd-odd_26) ∧
(-even-even_26 ∨ -even-odd_26) ∧
(-even-even_26 ∨ -odd-even_26) ∧
(-even-even_26 ∨ -odd-odd_26) ∧
(-even-odd_26 ∨ -odd-even_26) ∧
(-even-odd_26 ∨ -odd-odd_26) ∧
(-odd-even_26 ∨ -odd-odd_26) ∧
(even-even_27 ∨ even-odd_27 ∨ odd-even_27 ∨ odd-odd_27) ∧
(-even-even_27 ∨ -even-odd_27) ∧
(-even-even_27 ∨ -odd-even_27) ∧
(-even-even_27 ∨ -odd-odd_27) ∧
(-even-odd_27 ∨ -odd-even_27) ∧
(-even-odd_27 ∨ -odd-odd_27) ∧
(-odd-even_27 ∨ -odd-odd_27) ∧
(even-even_28 ∨ even-odd_28 ∨ odd-even_28 ∨ odd-odd_28) ∧
(-even-even_28 ∨ -even-odd_28) ∧
(-even-even_28 ∨ -odd-even_28) ∧
(-even-even_28 ∨ -odd-odd_28) ∧
(-even-odd_28 ∨ -odd-even_28) ∧
(-even-odd_28 ∨ -odd-odd_28) ∧
(-odd-even_28 ∨ -odd-odd_28) ∧
(even-even_29 ∨ even-odd_29 ∨ odd-even_29 ∨ odd-odd_29) ∧
(-even-even_29 ∨ -even-odd_29) ∧
(-even-even_29 ∨ -odd-even_29) ∧
(-even-even_29 ∨ -odd-odd_29) ∧
(-even-odd_29 ∨ -odd-even_29) ∧
(-even-odd_29 ∨ -odd-odd_29) ∧
(-odd-even_29 ∨ -odd-odd_29) ∧
(even-even_30 ∨ even-odd_30 ∨ odd-even_30 ∨ odd-odd_30) ∧
(-even-even_30 ∨ -even-odd_30) ∧
(-even-even_30 ∨ -odd-even_30) ∧
(-even-even_30 ∨ -odd-odd_30) ∧
(-even-odd_30 ∨ -odd-even_30) ∧
(-even-odd_30 ∨ -odd-odd_30) ∧
(-odd-even_30 ∨ -odd-odd_30) ∧
(even-even_31 ∨ even-odd_31 ∨ odd-even_31 ∨ odd-odd_31) ∧
(-even-even_31 ∨ -even-odd_31) ∧
(-even-even_31 ∨ -odd-even_31) ∧
(-even-even_31 ∨ -odd-odd_31) ∧
(-even-odd_31 ∨ -odd-even_31) ∧
(-even-odd_31 ∨ -odd-odd_31) ∧
(-odd-even_31 ∨ -odd-odd_31) ∧
(even-even_32 ∨ even-odd_32 ∨ odd-even_32 ∨ odd-odd_32) ∧
(-even-even_32 ∨ -even-odd_32) ∧
(-even-even_32 ∨ -odd-even_32) ∧
(-even-even_32 ∨ -odd-odd_32) ∧
(-even-odd_32 ∨ -odd-even_32) ∧
(-even-odd_32 ∨ -odd-odd_32) ∧
(-odd-even_32 ∨ -odd-odd_32) ∧
(even-even_33 ∨ even-odd_33 ∨ odd-even_33 ∨ odd-odd_33) ∧
(-even-even_33 ∨ -even-odd_33) ∧
(-even-even_33 ∨ -odd-even_33) ∧
(-even-even_33 ∨ -odd-odd_33) ∧
(-even-odd_33 ∨ -odd-even_33) ∧
(-even-odd_33 ∨ -odd-odd_33) ∧
(-odd-even_33 ∨ -odd-odd_33) ∧
(even-even_34 ∨ even-odd_34 ∨ odd-even_34 ∨ odd-odd_34) ∧
(-even-even_34 ∨ -even-odd_34) ∧
(-even-even_34 ∨ -odd-even_34) ∧
(-even-even_34 ∨ -odd-odd_34) ∧
(-even-odd_34 ∨ -odd-even_34) ∧
(-even-odd_34 ∨ -odd-odd_34) ∧
(-odd-even_34 ∨ -odd-odd_34) ∧
(even-even_35 ∨ even-odd_35 ∨ odd-even_35 ∨ odd-odd_35) ∧
(-even-even_35 ∨ -even-odd_35) ∧
(-even-even_35 ∨ -odd-even_35) ∧
(-even-even_35 ∨ -odd-odd_35) ∧
(-even-odd_35 ∨ -odd-even_35) ∧
(-even-odd_35 ∨ -odd-odd_35) ∧
(-odd-even_35 ∨ -odd-odd_35) ∧
(even-even_36 ∨ even-odd_36 ∨ odd-even_36 ∨ odd-odd_36) ∧
(-even-even_36 ∨ -even-odd_36) ∧
(-even-even_36 ∨ -odd-even_36) ∧
(-even-even_36 ∨ -odd-odd_36) ∧
(-even-odd_36 ∨ -odd-even_36) ∧
(-even-odd_36 ∨ -odd-odd_36) ∧
(-odd-even_36 ∨ -odd-odd_36) ∧
(even-even_37 ∨ even-odd_37 ∨ odd-even_37 ∨ odd-odd_37) ∧
(-even-even_37 ∨ -even-odd_37) ∧
(-even-even_37 ∨ -odd-even_37) ∧
(-even-even_37 ∨ -odd-odd_37) ∧
(-even-odd_37 ∨ -odd-even_37) ∧
(-even-odd_37 ∨ -odd-odd_37) ∧
(-odd-even_37 ∨ -odd-odd_37) ∧
(even-even_38 ∨ even-odd_38 ∨ odd-even_38 ∨ odd-odd_38) ∧
(-even-even_38 ∨ -even-odd_38) ∧
(-even-even_38 ∨ -odd-even_38) ∧
(-even-even_38 ∨ -odd-odd_38) ∧
(-even-odd_38 ∨ -odd-even_38) ∧
(-even-odd_38 ∨ -odd-odd_38) ∧
(-odd-even_38 ∨ -odd-odd_38) ∧
(even-even_39 ∨ even-odd_39 ∨ odd-even_39 ∨ odd-odd_39) ∧
(-even-even_39 ∨ -even-odd_39) ∧
(-even-even_39 ∨ -odd-even_39) ∧
(-even-even_39 ∨ -odd-odd_39) ∧
(-even-odd_39 ∨ -odd-even_39) ∧
(-even-odd_39 ∨ -odd-odd_39) ∧
(-odd-even_39 ∨ -odd-odd_39) ∧
(even-even_40 ∨ even-odd_40 ∨ odd-even_40 ∨ odd-odd_40) ∧
(-even-even_40 ∨ -even-odd_40) ∧
(-even-even_40 ∨ -odd-even_40) ∧
(-even-even_40 ∨ -odd-odd_40) ∧
(-even-odd_40 ∨ -odd-even_40) ∧
(-even-odd_40 ∨ -odd-odd_40) ∧
(-odd-even_40 ∨ -odd-odd_40) ∧
(even-even_41 ∨ even-odd_41 ∨ odd-even_41 ∨ odd-odd_41) ∧
(-even-even_41 ∨ -even-odd_41) ∧
(-even-even_41 ∨ -odd-even_41) ∧
(-even-even_41 ∨ -odd-odd_41) ∧
(-even-odd_41 ∨ -odd-even_41) ∧
(-even-odd_41 ∨ -odd-odd_41) ∧
(-odd-even_41 ∨ -odd-odd_41) ∧
(even-even_42 ∨ even-odd_42 ∨ odd-even_42 ∨ odd-odd_42) ∧
(-even-even_42 ∨ -even-odd_42) ∧
(-even-even_42 ∨ -odd-even_42) ∧
(-even-even_42 ∨ -odd-odd_42) ∧
(-even-odd_42 ∨ -odd-even_42) ∧
(-even-odd_42 ∨ -odd-odd_42) ∧
(-odd-even_42 ∨ -odd-odd_42) ∧
(even-even_43 ∨ even-odd_43 ∨ odd-even_43 ∨ odd-odd_43) ∧
(-even-even_43 ∨ -even-odd_43) ∧
(-even-even_43 ∨ -odd-even_43) ∧
(-even-even_43 ∨ -odd-odd_43) ∧
(-even-odd_43 ∨ -odd-even_43) ∧
(-even-odd_43 ∨ -odd-odd_43) ∧
(-odd-even_43 ∨ -odd-odd_43) ∧
(even-even_44 ∨ even-odd_44 ∨ odd-even_44 ∨ odd-odd_44) ∧
(-even-even_44 ∨ -even-odd_44) ∧
(-even-even_44 ∨ -odd-even_44) ∧
(-even-even_44 ∨ -odd-odd_44) ∧
(-even-odd_44 ∨ -odd-even_44) ∧
(-even-odd_44 ∨ -odd-odd_44) ∧
(-odd-even_44 ∨ -odd-odd_44) ∧
(even-even_45 ∨ even-odd_45 ∨ odd-even_45 ∨ odd-odd_45) ∧
(-even-even_45 ∨ -even-odd_45) ∧
(-even-even_45 ∨ -odd-even_45) ∧
(-even-even_45 ∨ -odd-odd_45) ∧
(-even-odd_45 ∨ -odd-even_45) ∧
(-even-odd_45 ∨ -odd-odd_45) ∧
(-odd-even_45 ∨ -odd-odd_45) ∧
(even-even_46 ∨ even-odd_46 ∨ odd-even_46 ∨ odd-odd_46) ∧
(-even-even_46 ∨ -even-odd_46) ∧
(-even-even_46 ∨ -odd-even_46) ∧
(-even-even_46 ∨ -odd-odd_46) ∧
(-even-odd_46 ∨ -odd-even_46) ∧
(-even-odd_46 ∨ -odd-odd_46) ∧
(-odd-even_46 ∨ -odd-odd_46) ∧
(even-even_47 ∨ even-odd_47 ∨ odd-even_47 ∨ odd-odd_47) ∧
(-even-even_47 ∨ -even-odd_47) ∧
(-even-even_47 ∨ -odd-even_47) ∧
(-even-even_47 ∨ -odd-odd_47) ∧
(-even-odd_47 ∨ -odd-even_47) ∧
(-even-odd_47 ∨ -odd-odd_47) ∧
(-odd-even_47 ∨ -odd-odd_47) ∧
(even-even_48 ∨ even-odd_48 ∨ odd-even_48 ∨ odd-odd_48) ∧
(-even-even_48 ∨ -even-odd_48) ∧
(-even-even_48 ∨ -odd-even_48) ∧
(-even-even_48 ∨ -odd-odd_48) ∧
(-even-odd_48 ∨ -odd-even_48) ∧
(-even-odd_48 ∨ -odd-odd_48) ∧
(-odd-even_48 ∨ -odd-odd_48) ∧
(even-even_49 ∨ even-odd_49 ∨ odd-even_49 ∨ odd-odd_49) ∧
(-even-even_49 ∨ -even-odd_49) ∧
(-even-even_49 ∨ -odd-even_49) ∧
(-even-even_49 ∨ -odd-odd_49) ∧
(-even-odd_49 ∨ -odd-even_49) ∧
(-even-odd_49 ∨ -odd-odd_49) ∧
(-odd-even_49 ∨ -odd-odd_49) ∧
(even-even_50 ∨ even-odd_50 ∨ odd-even_50 ∨ odd-odd_50) ∧
(-even-even_50 ∨ -even-odd_50) ∧
(-even-even_50 ∨ -odd-even_50) ∧
(-even-even_50 ∨ -odd-odd_50) ∧
(-even-odd_50 ∨ -odd-even_50) ∧
(-even-odd_50 ∨ -odd-odd_50) ∧
(-odd-even_50 ∨ -odd-odd_50) ∧
(even-even_51 ∨ even-odd_51 ∨ odd-even_51 ∨ odd-odd_51) ∧
(-even-even_51 ∨ -even-odd_51) ∧
(-even-even_51 ∨ -odd-even_51) ∧
(-even-even_51 ∨ -odd-odd_51) ∧
(-even-odd_51 ∨ -odd-even_51) ∧
(-even-odd_51 ∨ -odd-odd_51) ∧
(-odd-even_51 ∨ -odd-odd_51) ∧
(even-even_52 ∨ even-odd_52 ∨ odd-even_52 ∨ odd-odd_52) ∧
(-even-even_52 ∨ -even-odd_52) ∧
(-even-even_52 ∨ -odd-even_52) ∧
(-even-even_52 ∨ -odd-odd_52) ∧
(-even-odd_52 ∨ -odd-even_52) ∧
(-even-odd_52 ∨ -odd-odd_52) ∧
(-odd-even_52 ∨ -odd-odd_52) ∧
(even-even_53 ∨ even-odd_53 ∨ odd-even_53 ∨ odd-odd_53) ∧
(-even-even_53 ∨ -even-odd_53) ∧
(-even-even_53 ∨ -odd-even_53) ∧
(-even-even_53 ∨ -odd-odd_53) ∧
(-even-odd_53 ∨ -odd-even_53) ∧
(-even-odd_53 ∨ -odd-odd_53) ∧
(-odd-even_53 ∨ -odd-odd_53) ∧
(even-even_54 ∨ even-odd_54 ∨ odd-even_54 ∨ odd-odd_54) ∧
(-even-even_54 ∨ -even-odd_54) ∧
(-even-even_54 ∨ -odd-even_54) ∧
(-even-even_54 ∨ -odd-odd_54) ∧
(-even-odd_54 ∨ -odd-even_54) ∧
(-even-odd_54 ∨ -odd-odd_54) ∧
(-odd-even_54 ∨ -odd-odd_54) ∧
(even-even_55 ∨ even-odd_55 ∨ odd-even_55 ∨ odd-odd_55) ∧
(-even-even_55 ∨ -even-odd_55) ∧
(-even-even_55 ∨ -odd-even_55) ∧
(-even-even_55 ∨ -odd-odd_55) ∧
(-even-odd_55 ∨ -odd-even_55) ∧
(-even-odd_55 ∨ -odd-odd_55) ∧
(-odd-even_55 ∨ -odd-odd_55) ∧
(even-even_56 ∨ even-odd_56 ∨ odd-even_56 ∨ odd-odd_56) ∧
(-even-even_56 ∨ -even-odd_56) ∧
(-even-even_56 ∨ -odd-even_56) ∧
(-even-even_56 ∨ -odd-odd_56) ∧
(-even-odd_56 ∨ -odd-even_56) ∧
(-even-odd_56 ∨ -odd-odd_56) ∧
(-odd-even_56 ∨ -odd-odd_56) ∧
(even-even_57 ∨ even-odd_57 ∨ odd-even_57 ∨ odd-odd_57) ∧
(-even-even_57 ∨ -even-odd_57) ∧
(-even-even_57 ∨ -odd-even_57) ∧
(-even-even_57 ∨ -odd-odd_57) ∧
(-even-odd_57 ∨ -odd-even_57) ∧
(-even-odd_57 ∨ -odd-odd_57) ∧
(-odd-even_57 ∨ -odd-odd_57) ∧
(even-even_58 ∨ even-odd_58 ∨ odd-even_58 ∨ odd-odd_58) ∧
(-even-even_58 ∨ -even-odd_58) ∧
(-even-even_58 ∨ -odd-even_58) ∧
(-even-even_58 ∨ -odd-odd_58) ∧
(-even-odd_58 ∨ -odd-even_58) ∧
(-even-odd_58 ∨ -odd-odd_58) ∧
(-odd-even_58 ∨ -odd-odd_58) ∧
(even-even_59 ∨ even-odd_59 ∨ odd-even_59 ∨ odd-odd_59) ∧
(-even-even_59 ∨ -even-odd_59) ∧
(-even-even_59 ∨ -odd-even_59) ∧
(-even-even_59 ∨ -odd-odd_59) ∧
(-even-odd_59 ∨ -odd-even_59) ∧
(-even-odd_59 ∨ -odd-odd_59) ∧
(-odd-even_59 ∨ -odd-odd_59) ∧
(even-even_60 ∨ even-odd_60 ∨ odd-even_60 ∨ odd-odd_60) ∧
(-even-even_60 ∨ -even-odd_60) ∧
(-even-even_60 ∨ -odd-even_60) ∧
(-even-even_60 ∨ -odd-odd_60) ∧
(-even-odd_60 ∨ -odd-even_60) ∧
(-even-odd_60 ∨ -odd-odd_60) ∧
(-odd-even_60 ∨ -odd-odd_60) ∧
(even-even_60)